# Solution for model r5_t9_m0_9
# Finished Task: 3 / 9
# Makespan: 383.0, Total Distance: 62.0, Total Time: 0.6119
# R O S F
0 0 7 251.0 251.0
1 1 -1 255.0 255.0
2 2 10 262.0 262.0
3 3 11 238.0 238.0
4 4 -1 209.0 209.0
5 -1 -1 402.0 434.0
6 -1 -1 434.0 459.0
7 0 -1 351.0 381.0
8 -1 -1 498.0 534.0
9 -1 -1 405.0 434.0
10 2 -1 323.0 351.0
11 3 -1 351.0 383.0
12 -1 -1 459.0 498.0
13 -1 -1 381.0 402.0
